molecule h2o {
0 1
O       -0.1176269719      0.7387773605      0.0000000000
H        0.8523730281      0.7387773605      0.0000000000
H       -0.4409567836      1.4770262439     -0.5397651517
}

energy('hf/sto-3g')